NAME: qa194
COMMENT: Local search tour for qa194 (10316.550735217303)
TYPE: TOUR
DIMENSION: 194
TOUR_SECTION: 1 6 8 16 13 11 7 17 14 23 25 71 76 87 80 82 62 59 36 63 20 65 85 86 98 90 89 94 99 101 104 111 130 156 161 163 164 169 172 179 176 182 194 190 187 186 183 174 173 175 177 181 184 189 192 191 188 193 185 180 178 170 167 168 165 159 158 162 171 166 160 155 148 143 136 151 147 152 153 157 154 150 144 141 139 138 142 146 149 145 140 137 134 132 127 125 126 114 109 113 119 122 118 131 129 135 133 128 124 123 120 121 117 116 115 112 110 100 84 81 79 83 88 92 95 93 96 97 108 107 105 106 103 102 91 78 75 72 74 69 26 24 21 18 33 28 29 22 27 31 35 44 41 38 40 34 39 37 45 57 60 64 70 77 68 66 73 67 61 51 47 58 56 43 46 48 53 52 54 55 49 50 42 32 30 19 15 12 10 9 5 3 2 4 -1
EOF